param n := 120;
param c := 10000
param : V : p w :=
   0	  61	 470
   1	  85	 254
   2	  68	 276
   3	  76	 393
   4	  75	 271
   5	  94	 336
   6	  27	 354
   7	   9	 282
   8	  96	 364
   9	  21	 366
  10	  83	 262
  11	  55	 372
  12	  81	 418
  13	  40	 265
  14	  28	 317
  15	  99	 442
  16	  67	 257
  17	  25	 301
  18	  17	 463
  19	  81	 252
  20	  81	 285
  21	   6	 447
  22	  86	 254
  23	  27	 299
  24	  49	 473
  25	  23	 250
  26	  83	 277
  27	  68	 412
  28	  47	 272
  29	  12	 316
  30	  12	 351
  31	  19	 253
  32	  19	 396
  33	  88	 415
  34	  78	 289
  35	   1	 296
  36	  31	 403
  37	  92	 268
  38	  52	 329
  39	 100	 381
  40	  62	 295
  41	  86	 324
  42	  24	 397
  43	  58	 299
  44	  36	 304
  45	  63	 499
  46	  23	 250
  47	  61	 251
  48	  20	 457
  49	   1	 255
  50	  24	 288
  51	  15	 437
  52	  23	 278
  53	  82	 285
  54	  92	 354
  55	  76	 298
  56	  88	 348
  57	  99	 412
  58	  37	 265
  59	  18	 323
  60	  46	 419
  61	  12	 277
  62	  40	 304
  63	  12	 471
  64	  41	 252
  65	  46	 277
  66	  97	 434
  67	  63	 279
  68	  54	 287
  69	  16	 354
  70	  29	 256
  71	  96	 390
  72	  52	 476
  73	  91	 255
  74	  63	 269
  75	  32	 480
  76	  11	 254
  77	  47	 266
  78	  46	 418
  79	  29	 254
  80	  27	 328
  81	  29	 369
  82	  89	 280
  83	  85	 351
  84	  46	 411
  85	  92	 265
  86	   4	 324
  87	  78	 432
  88	  43	 278
  89	  37	 290
  90	  41	 406
  91	  52	 273
  92	  35	 321
  93	  73	 439
  94	  46	 274
  95	  47	 287
  96	  51	 393
  97	  42	 261
  98	  70	 346
  99	  71	 444
 100	  52	 255
 101	   3	 301
 102	  99	 499
 103	  70	 250
 104	  11	 251
 105	  59	 439
 106	  35	 261
 107	  87	 300
 108	  83	 374
 109	  97	 306
 110	  16	 320
 111	  13	 467
 112	  49	 257
 113	  25	 276
 114	  29	 410
 115	  17	 274
 116	   2	 316
 117	  36	 405
 118	  89	 294
 119	  20	 301
;

set E :=
   0	   1
   0	   4
   0	   8
   0	   9
   0	  11
   0	  13
   0	  14
   0	  17
   0	  22
   0	  33
   0	  35
   0	  41
   0	  43
   0	  45
   0	  48
   0	  53
   0	  60
   0	  66
   0	  69
   0	  74
   0	  75
   0	  77
   0	  81
   0	  85
   0	  88
   0	  90
   0	  97
   0	  98
   0	 100
   0	 102
   0	 103
   0	 104
   0	 107
   0	 111
   0	 114
   0	 115
   0	 118
   0	 119
   1	   2
   1	   5
   1	   6
   1	   7
   1	  11
   1	  16
   1	  22
   1	  24
   1	  28
   1	  30
   1	  36
   1	  37
   1	  38
   1	  40
   1	  42
   1	  46
   1	  48
   1	  53
   1	  54
   1	  55
   1	  58
   1	  59
   1	  61
   1	  66
   1	  67
   1	  71
   1	  73
   1	  74
   1	  86
   1	  87
   1	  93
   1	  96
   1	 101
   1	 102
   1	 108
   1	 109
   1	 111
   1	 112
   1	 114
   1	 116
   2	   4
   2	   5
   2	   8
   2	  10
   2	  11
   2	  24
   2	  25
   2	  26
   2	  27
   2	  29
   2	  30
   2	  35
   2	  38
   2	  39
   2	  40
   2	  48
   2	  49
   2	  50
   2	  51
   2	  52
   2	  56
   2	  57
   2	  64
   2	  72
   2	  81
   2	  84
   2	  90
   2	  93
   2	  95
   2	 104
   2	 106
   2	 107
   2	 116
   2	 117
   3	   4
   3	   7
   3	  10
   3	  12
   3	  21
   3	  24
   3	  26
   3	  30
   3	  34
   3	  38
   3	  39
   3	  45
   3	  53
   3	  55
   3	  56
   3	  61
   3	  62
   3	  63
   3	  64
   3	  65
   3	  71
   3	  75
   3	  76
   3	  77
   3	  80
   3	  81
   3	  83
   3	  84
   3	  89
   3	  93
   3	  96
   3	 100
   3	 104
   3	 115
   3	 116
   3	 117
   4	   5
   4	   9
   4	  10
   4	  11
   4	  13
   4	  17
   4	  20
   4	  21
   4	  24
   4	  36
   4	  39
   4	  41
   4	  42
   4	  47
   4	  52
   4	  57
   4	  58
   4	  62
   4	  63
   4	  66
   4	  68
   4	  76
   4	  79
   4	  85
   4	  87
   4	  96
   4	 101
   4	 105
   4	 107
   4	 115
   5	   7
   5	  13
   5	  15
   5	  16
   5	  20
   5	  21
   5	  22
   5	  24
   5	  25
   5	  26
   5	  28
   5	  35
   5	  38
   5	  39
   5	  48
   5	  61
   5	  67
   5	  69
   5	  70
   5	  82
   5	  87
   5	  88
   5	  90
   5	  93
   5	  98
   5	 103
   5	 116
   5	 117
   5	 119
   6	   8
   6	   9
   6	  14
   6	  15
   6	  18
   6	  20
   6	  23
   6	  25
   6	  26
   6	  27
   6	  34
   6	  37
   6	  42
   6	  44
   6	  47
   6	  49
   6	  50
   6	  53
   6	  55
   6	  60
   6	  72
   6	  85
   6	  92
   6	  98
   6	  99
   6	 100
   6	 105
   6	 106
   6	 108
   6	 109
   6	 116
   6	 117
   7	   8
   7	  10
   7	  12
   7	  14
   7	  15
   7	  17
   7	  18
   7	  20
   7	  25
   7	  26
   7	  38
   7	  39
   7	  41
   7	  42
   7	  52
   7	  53
   7	  54
   7	  59
   7	  62
   7	  67
   7	  68
   7	  69
   7	  73
   7	  74
   7	  80
   7	  81
   7	  85
   7	  91
   7	  92
   7	  97
   7	  98
   7	 106
   7	 110
   7	 111
   7	 118
   8	  10
   8	  12
   8	  14
   8	  15
   8	  16
   8	  17
   8	  18
   8	  19
   8	  21
   8	  23
   8	  28
   8	  29
   8	  37
   8	  38
   8	  41
   8	  42
   8	  46
   8	  53
   8	  60
   8	  62
   8	  63
   8	  66
   8	  68
   8	  69
   8	  70
   8	  71
   8	  74
   8	  76
   8	  77
   8	  79
   8	  96
   8	  98
   8	 103
   8	 106
   8	 109
   8	 110
   8	 112
   8	 113
   8	 115
   9	  11
   9	  12
   9	  15
   9	  17
   9	  19
   9	  21
   9	  30
   9	  31
   9	  33
   9	  37
   9	  38
   9	  42
   9	  43
   9	  44
   9	  49
   9	  55
   9	  56
   9	  59
   9	  65
   9	  72
   9	  74
   9	  75
   9	  77
   9	  80
   9	  83
   9	  91
   9	  92
   9	  95
   9	  97
   9	  99
   9	 101
   9	 103
   9	 109
   9	 112
   9	 113
   9	 115
   9	 117
  10	  14
  10	  17
  10	  20
  10	  21
  10	  23
  10	  24
  10	  26
  10	  27
  10	  28
  10	  30
  10	  31
  10	  35
  10	  37
  10	  38
  10	  43
  10	  45
  10	  46
  10	  49
  10	  50
  10	  55
  10	  63
  10	  65
  10	  66
  10	  67
  10	  68
  10	  69
  10	  79
  10	  81
  10	  83
  10	  84
  10	  88
  10	  93
  10	  94
  10	  95
  10	 100
  10	 101
  10	 105
  10	 112
  10	 116
  11	  12
  11	  13
  11	  15
  11	  22
  11	  31
  11	  32
  11	  34
  11	  42
  11	  44
  11	  45
  11	  52
  11	  54
  11	  57
  11	  58
  11	  63
  11	  64
  11	  66
  11	  68
  11	  73
  11	  74
  11	  77
  11	  79
  11	  80
  11	  82
  11	  89
  11	  90
  11	  92
  11	  93
  11	  96
  11	  97
  11	 103
  11	 106
  11	 108
  11	 114
  11	 117
  12	  24
  12	  25
  12	  26
  12	  33
  12	  34
  12	  42
  12	  47
  12	  51
  12	  54
  12	  57
  12	  65
  12	  68
  12	  69
  12	  71
  12	  73
  12	  74
  12	  79
  12	  82
  12	  89
  12	  91
  12	  99
  12	 107
  12	 109
  12	 113
  12	 114
  12	 118
  12	 119
  13	  19
  13	  22
  13	  28
  13	  35
  13	  37
  13	  39
  13	  41
  13	  46
  13	  55
  13	  58
  13	  59
  13	  60
  13	  67
  13	  68
  13	  84
  13	  85
  13	  88
  13	  97
  13	  98
  13	 111
  13	 114
  13	 117
  14	  17
  14	  18
  14	  21
  14	  24
  14	  25
  14	  29
  14	  32
  14	  34
  14	  36
  14	  44
  14	  45
  14	  49
  14	  50
  14	  52
  14	  55
  14	  57
  14	  61
  14	  71
  14	  72
  14	  75
  14	  80
  14	  81
  14	  92
  14	  93
  14	  94
  14	  95
  14	  97
  14	  98
  14	 101
  14	 102
  14	 108
  14	 111
  15	  16
  15	  17
  15	  19
  15	  20
  15	  28
  15	  41
  15	  46
  15	  51
  15	  52
  15	  57
  15	  60
  15	  63
  15	  66
  15	  67
  15	  68
  15	  71
  15	  76
  15	  78
  15	  79
  15	  80
  15	  86
  15	  88
  15	  98
  15	  99
  15	 113
  15	 115
  15	 118
  16	  17
  16	  18
  16	  22
  16	  23
  16	  27
  16	  28
  16	  41
  16	  45
  16	  50
  16	  56
  16	  57
  16	  60
  16	  61
  16	  64
  16	  67
  16	  68
  16	  69
  16	  71
  16	  75
  16	  76
  16	  89
  16	  93
  16	 109
  16	 117
  16	 119
  17	  20
  17	  22
  17	  24
  17	  29
  17	  31
  17	  33
  17	  37
  17	  38
  17	  39
  17	  47
  17	  58
  17	  59
  17	  61
  17	  70
  17	  77
  17	  78
  17	  79
  17	  88
  17	  89
  17	  94
  17	  98
  17	 101
  17	 105
  17	 106
  17	 107
  17	 109
  17	 113
  17	 117
  18	  21
  18	  23
  18	  24
  18	  25
  18	  26
  18	  27
  18	  31
  18	  33
  18	  34
  18	  37
  18	  42
  18	  47
  18	  49
  18	  52
  18	  56
  18	  62
  18	  66
  18	  67
  18	  68
  18	  69
  18	  74
  18	  76
  18	  77
  18	  82
  18	  86
  18	  89
  18	  90
  18	  92
  18	  93
  18	  96
  18	  99
  18	 103
  18	 106
  18	 112
  18	 115
  18	 118
  18	 119
  19	  22
  19	  25
  19	  28
  19	  30
  19	  33
  19	  34
  19	  39
  19	  43
  19	  44
  19	  46
  19	  52
  19	  58
  19	  64
  19	  66
  19	  67
  19	  71
  19	  80
  19	  92
  19	  93
  19	  96
  19	 100
  19	 102
  19	 107
  19	 110
  19	 112
  19	 114
  20	  24
  20	  25
  20	  34
  20	  35
  20	  39
  20	  40
  20	  42
  20	  43
  20	  48
  20	  51
  20	  53
  20	  62
  20	  64
  20	  65
  20	  70
  20	  71
  20	  72
  20	  75
  20	  79
  20	  86
  20	  88
  20	  94
  20	  95
  20	  98
  20	 110
  20	 112
  20	 117
  21	  24
  21	  26
  21	  32
  21	  37
  21	  40
  21	  41
  21	  42
  21	  44
  21	  51
  21	  52
  21	  55
  21	  59
  21	  64
  21	  66
  21	  70
  21	  71
  21	  80
  21	  81
  21	  83
  21	  85
  21	  86
  21	  88
  21	  89
  21	  94
  21	  96
  21	  97
  21	  98
  21	 100
  21	 112
  21	 113
  21	 114
  21	 115
  21	 116
  22	  31
  22	  34
  22	  35
  22	  36
  22	  39
  22	  41
  22	  42
  22	  45
  22	  50
  22	  52
  22	  54
  22	  56
  22	  60
  22	  65
  22	  66
  22	  68
  22	  70
  22	  71
  22	  73
  22	  74
  22	  77
  22	  80
  22	  85
  22	  86
  22	  92
  22	  93
  22	  94
  22	  97
  22	  98
  22	 109
  22	 110
  22	 117
  23	  25
  23	  31
  23	  33
  23	  41
  23	  43
  23	  44
  23	  45
  23	  47
  23	  60
  23	  61
  23	  62
  23	  65
  23	  66
  23	  68
  23	  69
  23	  71
  23	  72
  23	  80
  23	  84
  23	  88
  23	  91
  23	  97
  23	  99
  23	 101
  23	 102
  23	 104
  23	 105
  23	 106
  23	 110
  23	 111
  23	 112
  23	 115
  23	 119
  24	  29
  24	  33
  24	  35
  24	  41
  24	  42
  24	  48
  24	  50
  24	  51
  24	  53
  24	  55
  24	  57
  24	  58
  24	  60
  24	  63
  24	  71
  24	  75
  24	  76
  24	  77
  24	  81
  24	  83
  24	  88
  24	  90
  24	  91
  24	  92
  24	  93
  24	  96
  24	  98
  24	 101
  24	 106
  24	 108
  24	 113
  24	 114
  24	 115
  24	 118
  25	  30
  25	  32
  25	  35
  25	  40
  25	  44
  25	  46
  25	  51
  25	  63
  25	  67
  25	  72
  25	  80
  25	  84
  25	  85
  25	  86
  25	  87
  25	  91
  25	  92
  25	  93
  25	  97
  25	 107
  25	 112
  25	 113
  25	 119
  26	  28
  26	  29
  26	  33
  26	  36
  26	  41
  26	  44
  26	  49
  26	  55
  26	  60
  26	  61
  26	  63
  26	  64
  26	  66
  26	  68
  26	  69
  26	  70
  26	  73
  26	  79
  26	  81
  26	  84
  26	  89
  26	  97
  26	  99
  26	 106
  26	 110
  26	 112
  26	 113
  26	 116
  27	  29
  27	  34
  27	  38
  27	  40
  27	  42
  27	  43
  27	  44
  27	  46
  27	  52
  27	  56
  27	  60
  27	  65
  27	  71
  27	  74
  27	  79
  27	  85
  27	  89
  27	  91
  27	  92
  27	  95
  27	  98
  27	  99
  27	 100
  27	 101
  27	 108
  27	 110
  27	 111
  27	 113
  27	 114
  28	  29
  28	  31
  28	  36
  28	  40
  28	  44
  28	  48
  28	  51
  28	  55
  28	  58
  28	  59
  28	  60
  28	  62
  28	  63
  28	  64
  28	  65
  28	  78
  28	  81
  28	  82
  28	  83
  28	  85
  28	  86
  28	  87
  28	  92
  28	  95
  28	 100
  28	 101
  28	 103
  28	 104
  28	 106
  28	 109
  28	 110
  28	 111
  28	 119
  29	  31
  29	  40
  29	  54
  29	  59
  29	  61
  29	  63
  29	  67
  29	  68
  29	  84
  29	  97
  29	  99
  29	 102
  29	 107
  29	 108
  29	 114
  29	 116
  29	 119
  30	  31
  30	  33
  30	  35
  30	  36
  30	  43
  30	  47
  30	  48
  30	  49
  30	  50
  30	  51
  30	  52
  30	  54
  30	  55
  30	  57
  30	  62
  30	  63
  30	  64
  30	  65
  30	  69
  30	  70
  30	  73
  30	  75
  30	  76
  30	  78
  30	  80
  30	  82
  30	  84
  30	  85
  30	  90
  30	  91
  30	  92
  30	  93
  30	  96
  30	  97
  30	  98
  30	  99
  30	 103
  30	 104
  30	 105
  30	 106
  30	 108
  30	 116
  30	 118
  31	  38
  31	  39
  31	  41
  31	  44
  31	  47
  31	  48
  31	  49
  31	  59
  31	  60
  31	  64
  31	  67
  31	  68
  31	  69
  31	  74
  31	  76
  31	  77
  31	  78
  31	  80
  31	  81
  31	  91
  31	  92
  31	  94
  31	  99
  31	 102
  31	 103
  31	 109
  31	 118
  32	  36
  32	  42
  32	  44
  32	  46
  32	  48
  32	  52
  32	  53
  32	  65
  32	  66
  32	  68
  32	  79
  32	  81
  32	  82
  32	  86
  32	  90
  32	  98
  32	 102
  32	 108
  32	 118
  33	  34
  33	  35
  33	  36
  33	  45
  33	  46
  33	  52
  33	  54
  33	  55
  33	  56
  33	  57
  33	  62
  33	  64
  33	  65
  33	  67
  33	  73
  33	  75
  33	  78
  33	  79
  33	  80
  33	  81
  33	  85
  33	  86
  33	  88
  33	  89
  33	  92
  33	  95
  33	  96
  33	  97
  33	 104
  33	 109
  33	 110
  33	 111
  33	 118
  34	  38
  34	  40
  34	  46
  34	  49
  34	  51
  34	  53
  34	  55
  34	  57
  34	  58
  34	  66
  34	  76
  34	  78
  34	  82
  34	  88
  34	  92
  34	  93
  34	  95
  34	  98
  34	  99
  34	 100
  34	 101
  34	 104
  34	 106
  34	 108
  34	 109
  34	 111
  34	 114
  34	 116
  35	  40
  35	  42
  35	  46
  35	  52
  35	  53
  35	  61
  35	  62
  35	  69
  35	  77
  35	  80
  35	  84
  35	  87
  35	  90
  35	  91
  35	 112
  35	 114
  36	  37
  36	  39
  36	  42
  36	  44
  36	  51
  36	  54
  36	  56
  36	  65
  36	  66
  36	  75
  36	  77
  36	  82
  36	  85
  36	  87
  36	  90
  36	  95
  36	  98
  36	 106
  36	 109
  36	 113
  36	 114
  36	 119
  37	  39
  37	  41
  37	  44
  37	  47
  37	  52
  37	  53
  37	  55
  37	  56
  37	  65
  37	  71
  37	  74
  37	  76
  37	  84
  37	  85
  37	  86
  37	  92
  37	  93
  37	  95
  37	  96
  37	 100
  37	 103
  37	 110
  37	 113
  38	  39
  38	  45
  38	  49
  38	  51
  38	  52
  38	  57
  38	  59
  38	  61
  38	  62
  38	  67
  38	  68
  38	  69
  38	  72
  38	  76
  38	  78
  38	  83
  38	  84
  38	  85
  38	  90
  38	  91
  38	 102
  38	 109
  38	 112
  38	 116
  38	 117
  39	  48
  39	  49
  39	  50
  39	  53
  39	  59
  39	  65
  39	  66
  39	  77
  39	  79
  39	  84
  39	  87
  39	  89
  39	  93
  39	 101
  39	 102
  39	 114
  39	 116
  39	 119
  40	  42
  40	  43
  40	  52
  40	  55
  40	  56
  40	  60
  40	  68
  40	  70
  40	  71
  40	  73
  40	  75
  40	  79
  40	  83
  40	  84
  40	  88
  40	  89
  40	 104
  40	 105
  40	 106
  40	 113
  40	 119
  41	  43
  41	  44
  41	  45
  41	  46
  41	  48
  41	  50
  41	  53
  41	  58
  41	  59
  41	  65
  41	  68
  41	  69
  41	  70
  41	  71
  41	  76
  41	  78
  41	  82
  41	  84
  41	  85
  41	  90
  41	  94
  41	  96
  41	 100
  41	 103
  41	 108
  41	 110
  41	 114
  42	  47
  42	  49
  42	  53
  42	  59
  42	  66
  42	  67
  42	  73
  42	  76
  42	  79
  42	  91
  42	  95
  42	  97
  42	  99
  42	 101
  42	 102
  42	 104
  42	 107
  42	 110
  42	 112
  42	 113
  42	 114
  42	 115
  43	  44
  43	  46
  43	  48
  43	  49
  43	  51
  43	  54
  43	  58
  43	  62
  43	  63
  43	  65
  43	  67
  43	  71
  43	  72
  43	  74
  43	  84
  43	  85
  43	  86
  43	  89
  43	  92
  43	  93
  43	  96
  43	  97
  43	 105
  43	 107
  43	 108
  43	 111
  43	 114
  43	 119
  44	  50
  44	  53
  44	  55
  44	  59
  44	  60
  44	  61
  44	  65
  44	  69
  44	  71
  44	  76
  44	  79
  44	  84
  44	  87
  44	  92
  44	  94
  44	  96
  44	  97
  44	  99
  44	 100
  44	 101
  44	 104
  44	 109
  44	 110
  44	 113
  44	 114
  44	 117
  44	 118
  45	  51
  45	  52
  45	  56
  45	  58
  45	  68
  45	  75
  45	  76
  45	  77
  45	  84
  45	  87
  45	  88
  45	  90
  45	  94
  45	  97
  45	 100
  45	 101
  45	 103
  45	 105
  45	 106
  45	 108
  45	 111
  45	 114
  46	  50
  46	  51
  46	  52
  46	  56
  46	  57
  46	  58
  46	  59
  46	  67
  46	  71
  46	  75
  46	  78
  46	  82
  46	  85
  46	  88
  46	  90
  46	  92
  46	  95
  46	  96
  46	  98
  46	  99
  46	 115
  46	 119
  47	  49
  47	  51
  47	  52
  47	  53
  47	  58
  47	  62
  47	  64
  47	  66
  47	  67
  47	  68
  47	  70
  47	  72
  47	  73
  47	  74
  47	  75
  47	  77
  47	  78
  47	  81
  47	  85
  47	  89
  47	  90
  47	  97
  47	 107
  47	 110
  48	  49
  48	  54
  48	  55
  48	  56
  48	  59
  48	  60
  48	  61
  48	  65
  48	  69
  48	  70
  48	  71
  48	  75
  48	  80
  48	  83
  48	  89
  48	  90
  48	  92
  48	  94
  48	  96
  48	 101
  48	 104
  48	 106
  48	 110
  48	 113
  48	 114
  48	 117
  48	 118
  48	 119
  49	  51
  49	  52
  49	  54
  49	  63
  49	  65
  49	  68
  49	  69
  49	  72
  49	  78
  49	  84
  49	  96
  49	  97
  49	  98
  49	 106
  49	 110
  49	 113
  49	 116
  49	 117
  50	  51
  50	  55
  50	  61
  50	  64
  50	  69
  50	  72
  50	  74
  50	  81
  50	  84
  50	  92
  50	  93
  50	  98
  50	  99
  50	 106
  50	 109
  50	 111
  50	 112
  50	 117
  50	 119
  51	  52
  51	  58
  51	  65
  51	  67
  51	  69
  51	  72
  51	  73
  51	  74
  51	  76
  51	  80
  51	  81
  51	  83
  51	  86
  51	  92
  51	 103
  51	 107
  51	 111
  51	 117
  51	 118
  52	  67
  52	  69
  52	  76
  52	  77
  52	  78
  52	  81
  52	  83
  52	  87
  52	  93
  52	 101
  52	 102
  52	 105
  52	 106
  52	 109
  52	 113
  52	 115
  52	 116
  53	  56
  53	  62
  53	  64
  53	  66
  53	  72
  53	  73
  53	  75
  53	  83
  53	  89
  53	  90
  53	  99
  53	 108
  53	 109
  53	 111
  53	 112
  53	 114
  53	 115
  53	 117
  53	 118
  54	  63
  54	  65
  54	  69
  54	  71
  54	  72
  54	  79
  54	  82
  54	  88
  54	  97
  54	 101
  54	 112
  54	 118
  55	  69
  55	  76
  55	  82
  55	  85
  55	  86
  55	  90
  55	  99
  55	 103
  55	 104
  55	 110
  55	 111
  55	 115
  55	 116
  55	 117
  55	 118
  55	 119
  56	  57
  56	  59
  56	  64
  56	  66
  56	  67
  56	  71
  56	  77
  56	  79
  56	  80
  56	  81
  56	  85
  56	  89
  56	  90
  56	  95
  56	  96
  56	  97
  56	  99
  56	 103
  56	 107
  56	 112
  56	 115
  56	 117
  56	 119
  57	  58
  57	  62
  57	  65
  57	  69
  57	  75
  57	  76
  57	  78
  57	  79
  57	  81
  57	  85
  57	  87
  57	  93
  57	  94
  57	  99
  57	 103
  57	 106
  57	 111
  57	 113
  57	 114
  58	  60
  58	  64
  58	  68
  58	  74
  58	  77
  58	  79
  58	  81
  58	  87
  58	  91
  58	  92
  58	  97
  58	  98
  58	 105
  58	 106
  58	 108
  58	 109
  58	 112
  58	 113
  58	 118
  59	  62
  59	  68
  59	  74
  59	  75
  59	  78
  59	  79
  59	  86
  59	  90
  59	  96
  59	 101
  59	 105
  59	 109
  59	 112
  59	 116
  59	 118
  60	  63
  60	  65
  60	  71
  60	  72
  60	  74
  60	  75
  60	  76
  60	  82
  60	  84
  60	  86
  60	  87
  60	  89
  60	  96
  60	  98
  60	 100
  60	 104
  60	 111
  60	 113
  60	 114
  60	 115
  61	  63
  61	  68
  61	  72
  61	  73
  61	  76
  61	  77
  61	  80
  61	  81
  61	  83
  61	  84
  61	  85
  61	  87
  61	  92
  61	  93
  61	  94
  61	  96
  61	  97
  61	 104
  61	 111
  61	 112
  61	 116
  62	  68
  62	  70
  62	  72
  62	  81
  62	  85
  62	  87
  62	  90
  62	  93
  62	  94
  62	  95
  62	  96
  62	  97
  62	  99
  62	 100
  62	 108
  62	 119
  63	  67
  63	  69
  63	  71
  63	  72
  63	  74
  63	  75
  63	  81
  63	  83
  63	  86
  63	  87
  63	  88
  63	  90
  63	  92
  63	  95
  63	  96
  63	  97
  63	 107
  63	 108
  63	 115
  63	 118
  63	 119
  64	  71
  64	  75
  64	  77
  64	  80
  64	  82
  64	  83
  64	  87
  64	  89
  64	 104
  64	 105
  64	 106
  64	 108
  64	 109
  64	 118
  64	 119
  65	  75
  65	  78
  65	  80
  65	  81
  65	  82
  65	  84
  65	  85
  65	  90
  65	  94
  65	 102
  65	 107
  65	 111
  65	 114
  65	 117
  66	  68
  66	  73
  66	  75
  66	  81
  66	  85
  66	  91
  66	  93
  66	  95
  66	  96
  66	  97
  66	  99
  66	 100
  66	 119
  67	  70
  67	  71
  67	  75
  67	  77
  67	  79
  67	  81
  67	  84
  67	  89
  67	  92
  67	  95
  67	  97
  67	  98
  67	 101
  67	 103
  67	 113
  67	 118
  67	 119
  68	  69
  68	  70
  68	  72
  68	  75
  68	  78
  68	  90
  68	  93
  68	  95
  68	  97
  68	  99
  68	 104
  68	 106
  68	 107
  68	 111
  68	 113
  68	 114
  68	 115
  68	 116
  69	  71
  69	  72
  69	  75
  69	  78
  69	  80
  69	  83
  69	  84
  69	  91
  69	  93
  69	  95
  69	  96
  69	  98
  69	  99
  69	 108
  69	 110
  69	 116
  69	 117
  69	 118
  70	  72
  70	  77
  70	  78
  70	  81
  70	  82
  70	  97
  70	  99
  70	 104
  70	 105
  70	 106
  70	 116
  70	 117
  70	 118
  71	  72
  71	  73
  71	  74
  71	  76
  71	  83
  71	  91
  71	  97
  71	  99
  71	 100
  71	 104
  71	 105
  71	 111
  71	 112
  71	 116
  71	 119
  72	  73
  72	  74
  72	  86
  72	  91
  72	 105
  72	 113
  72	 114
  72	 117
  72	 119
  73	  75
  73	  81
  73	  85
  73	  87
  73	  92
  73	 101
  73	 103
  73	 104
  73	 115
  74	  75
  74	  76
  74	  77
  74	  85
  74	  90
  74	  96
  74	  97
  74	 101
  74	 102
  74	 103
  74	 104
  74	 108
  74	 109
  74	 111
  74	 113
  74	 114
  75	  78
  75	  79
  75	  81
  75	  89
  75	  90
  75	  94
  75	  97
  75	 102
  75	 108
  75	 113
  75	 118
  75	 119
  76	  92
  76	  93
  76	  94
  76	  95
  76	  97
  76	  98
  76	 100
  76	 104
  76	 109
  76	 113
  76	 118
  77	  79
  77	  80
  77	  83
  77	  92
  77	  93
  77	  94
  77	  98
  77	  99
  77	 103
  77	 104
  77	 106
  77	 112
  77	 115
  78	  80
  78	  81
  78	  83
  78	  87
  78	  90
  78	  93
  78	  94
  78	  96
  78	  97
  78	 102
  78	 109
  78	 110
  79	  80
  79	  83
  79	  93
  79	  94
  79	  98
  79	  99
  79	 106
  79	 107
  79	 108
  79	 109
  79	 112
  79	 114
  79	 115
  79	 117
  80	  83
  80	  85
  80	 100
  80	 101
  80	 109
  80	 111
  80	 113
  80	 114
  80	 115
  80	 118
  80	 119
  81	  82
  81	  83
  81	  92
  81	 101
  81	 102
  81	 106
  81	 108
  81	 110
  81	 114
  81	 118
  81	 119
  82	  83
  82	  85
  82	  87
  82	  88
  82	  89
  82	  92
  82	  94
  82	  97
  82	  98
  82	 100
  82	 101
  82	 102
  82	 105
  82	 107
  82	 114
  82	 117
  83	  85
  83	  88
  83	  91
  83	  95
  83	  97
  83	  99
  83	 100
  83	 101
  83	 102
  83	 105
  83	 106
  83	 115
  83	 116
  83	 117
  83	 118
  84	  89
  84	  90
  84	  94
  84	  95
  84	  97
  84	  99
  84	 102
  84	 104
  84	 108
  84	 112
  84	 114
  84	 116
  84	 117
  85	  86
  85	  88
  85	  89
  85	  90
  85	  92
  85	  94
  85	 103
  85	 105
  85	 109
  85	 110
  85	 113
  85	 116
  85	 117
  85	 118
  85	 119
  86	  89
  86	  91
  86	  92
  86	  94
  86	 100
  86	 103
  86	 104
  86	 105
  86	 110
  86	 113
  86	 116
  86	 117
  86	 119
  87	  88
  87	  91
  87	  95
  87	  96
  87	  97
  87	  99
  87	 101
  87	 103
  87	 105
  87	 108
  87	 110
  87	 115
  87	 117
  88	  97
  88	  98
  88	  99
  88	 101
  88	 104
  88	 105
  88	 106
  88	 107
  88	 109
  88	 111
  88	 113
  88	 116
  88	 117
  89	  91
  89	  92
  89	  93
  89	  96
  89	  98
  89	 104
  89	 107
  89	 108
  89	 109
  90	  91
  90	 100
  90	 110
  90	 113
  90	 114
  90	 116
  91	  94
  91	  96
  91	  99
  91	 107
  91	 108
  91	 109
  91	 110
  91	 113
  91	 115
  91	 116
  91	 119
  92	  94
  92	  98
  92	  99
  92	 100
  92	 104
  92	 105
  92	 111
  92	 115
  92	 118
  93	  98
  93	 100
  93	 102
  93	 106
  93	 111
  93	 119
  94	  95
  94	  96
  94	  99
  94	 100
  94	 101
  94	 102
  94	 103
  94	 106
  94	 108
  94	 112
  94	 114
  94	 118
  95	  96
  95	  98
  95	  99
  95	 102
  95	 104
  95	 105
  96	 100
  96	 106
  96	 107
  96	 109
  96	 116
  96	 117
  97	  98
  97	  99
  97	 100
  97	 101
  97	 102
  97	 103
  97	 105
  97	 108
  97	 111
  97	 113
  98	 113
  98	 119
  99	 100
  99	 102
  99	 103
  99	 108
  99	 116
  99	 118
 100	 102
 100	 103
 100	 108
 100	 109
 100	 111
 100	 118
 101	 104
 101	 106
 101	 110
 101	 115
 102	 105
 102	 109
 102	 114
 102	 115
 102	 117
 103	 104
 103	 112
 103	 113
 103	 114
 103	 116
 104	 106
 104	 110
 105	 112
 105	 114
 105	 118
 106	 108
 106	 116
 107	 113
 107	 114
 107	 119
 108	 113
 108	 114
 109	 115
 109	 116
 110	 111
 110	 112
 110	 113
 110	 114
 110	 116
 110	 118
 111	 118
 112	 114
 112	 115
 112	 116
 112	 117
 113	 114
 113	 117
 113	 118
 113	 119
 114	 115
 115	 119
 116	 117
;
